103 6
10 10 10 10 10 11
1 0 0 0 0 0 0 3 2 3 4
6 0 0 0 8 0 0 1 7
10 0 10 7 2 0 3 4 5 6 7 8
2 6 6 0 2 6 9 2 7 8
1 0 0 0 8 0 10 2 9 12
5 4 0 10 7 8 6 2 10 11
6 0 3 0 0 0 7 1 11
2 4 0 9 7 1 0 2 11 12
1 0 0 0 0 5 8 2 13 16
10 0 0 0 4 0 9 3 13 15 16
1 1 0 6 6 1 1 3 13 14 15
1 0 9 8 0 1 5 2 13 16
9 0 0 6 7 10 8 4 17 18 19 20
1 0 0 0 3 10 5 1 18
6 0 7 0 0 0 0 1 18
4 1 7 10 0 0 8 2 17 18
8 0 0 0 0 0 0 2 21 23
1 0 10 0 0 0 0 2 21 24
3 5 9 0 0 0 0 1 22
6 0 0 0 4 3 2 2 21 24
8 2 0 4 0 5 0 3 25 26 28
6 9 0 0 1 1 3 4 25 26 27 28
1 0 3 0 4 0 4 3 26 27 28
1 7 6 0 0 0 9 3 25 26 28
8 0 9 0 0 1 8 3 29 31 32
5 0 0 0 0 2 0 2 29 32
1 0 1 0 3 0 4 2 30 32
1 0 0 0 4 0 6 3 29 30 32
1 5 0 3 0 0 0 2 33 36
1 0 0 0 8 0 0 3 34 35 36
6 0 6 5 6 0 0 4 33 34 35 36
3 6 0 5 0 5 0 3 34 35 36
1 0 0 0 3 5 2 2 38 39
8 0 1 0 0 0 8 3 37 38 39
1 4 0 3 7 0 7 3 37 39 40
5 0 9 4 6 0 0 1 39
1 0 0 4 0 9 10 1 43
9 0 0 0 0 0 0 1 41
1 5 6 0 9 0 0 1 43
2 0 8 0 0 0 1 3 41 42 44
6 4 8 7 0 8 4 4 45 46 47 48
5 7 0 0 0 4 0 2 45 48
1 7 0 3 0 6 0 2 47 48
1 0 4 0 1 9 0 2 45 48
1 5 4 6 0 7 2 1 49
1 0 0 0 4 8 0 2 50 51
2 10 0 4 9 0 0 2 51 52
9 1 0 9 1 3 0 2 50 52
5 4 0 0 0 0 4 2 54 56
6 9 0 5 0 10 0 3 53 54 56
3 0 5 0 0 0 2 2 53 56
2 4 0 7 0 7 10 2 55 56
3 0 0 0 0 3 0 3 57 59 60
1 10 0 2 9 0 3 2 58 59
6 0 0 0 8 4 3 2 58 59
1 3 7 0 0 2 6 1 58
9 8 0 0 0 0 1 3 62 63 64
1 0 9 0 9 7 9 3 61 62 63
1 9 4 0 0 0 7 1 61
1 0 0 10 0 0 0 1 62
1 0 0 9 9 3 0 1 67
1 0 1 4 6 8 7 3 66 67 68
3 6 0 2 8 0 0 2 65 68
3 8 0 7 7 0 0 3 66 67 68
5 0 0 0 3 8 0 3 69 70 72
1 0 0 0 0 6 8 1 69
1 0 9 0 3 0 10 4 69 70 71 72
1 0 0 8 0 6 0 2 70 72
8 0 0 0 0 6 5 3 73 75 76
1 0 8 9 6 4 5 2 73 75
1 0 1 0 0 0 3 2 73 75
1 8 0 5 1 5 0 2 74 75
7 6 0 9 8 3 9 1 77
1 0 4 0 7 0 0 1 77
1 0 0 0 0 5 0 1 79
2 10 5 10 3 5 0 3 77 78 80
7 0 9 8 0 0 8 2 82 84
1 0 2 4 10 3 7 2 82 83
2 0 0 7 0 6 0 2 81 83
1 5 0 0 6 1 1 1 83
1 0 0 0 0 0 0 1 86
1 0 0 0 0 0 7 2 86 87
3 4 7 0 3 0 7 2 86 87
3 10 7 8 2 0 9 4 85 86 87 88
3 0 0 3 0 0 8 2 89 90
5 0 4 0 0 3 0 2 89 92
1 0 0 4 0 0 4 2 89 92
1 4 10 0 0 0 6 3 89 90 91
9 0 5 0 0 6 7 2 95 96
1 8 1 4 0 0 6 3 93 94 96
1 7 6 0 6 5 7 2 93 96
2 4 9 0 0 6 4 1 94
2 0 0 0 1 10 10 1 99
5 2 0 0 4 0 8 2 97 100
1 7 9 0 7 0 4 1 99
9 5 0 0 9 0 4 2 98 99
1 1 7 4 0 0 0 1 101
1 9 10 10 0 6 0 1 102
3 10 3 4 4 3 0 2 101 102
4 5 3 2 5 0 0 1 101
9 0 0 0 0 0 0 1 103
5 8 4 0 6 4 7 1 103
0 0 0 0 0 0 0 0
